gen cost
0 1441
1 1414
2 1412
3 1410
4 1389
5 1383
6 1383
7 1369
8 1349
9 1342
10 1316
11 1314
12 1304
13 1302
14 1302
15 1285
16 1280
17 1279
18 1272
19 1269
20 1259
21 1258
22 1251
23 1231
24 1228
25 1220
26 1205
27 1205
28 1198
29 1197
30 1196
31 1196
32 1188
33 1186
34 1181
35 1176
36 1174
37 1172
38 1170
39 1163
40 1163
41 1162
42 1162
43 1162
44 1162
45 1162
46 1154
47 1154
48 1153
49 1153
